(set-logic QF_LRA)

(declare-fun x0 () Real)
(declare-fun x1 () Real)
(declare-fun x2 () Real)
(declare-fun x3 () Real)
(declare-fun x4 () Real)
(declare-fun x5 () Real)
(declare-fun x6 () Real)
(declare-fun x7 () Real)
(declare-fun x8 () Real)
(declare-fun x9 () Real)
(declare-fun x10 () Real)
(declare-fun x11 () Real)
(declare-fun x12 () Real)
(declare-fun x13 () Real)
(declare-fun x14 () Real)
(declare-fun x15 () Real)
(declare-fun x16 () Real)
(declare-fun x17 () Real)
(declare-fun x18 () Real)
(declare-fun x19 () Real)
(declare-fun x20 () Real)

(declare-fun y0 () Real)
(declare-fun y1 () Real)
(declare-fun y2 () Real)
(declare-fun y3 () Real)
(declare-fun y4 () Real)
(declare-fun y5 () Real)
(declare-fun y6 () Real)
(declare-fun y7 () Real)
(declare-fun y8 () Real)
(declare-fun y9 () Real)
(declare-fun y10 () Real)
(declare-fun y11 () Real)
(declare-fun y12 () Real)
(declare-fun y13 () Real)
(declare-fun y14 () Real)
(declare-fun y15 () Real)
(declare-fun y16 () Real)
(declare-fun y17 () Real)
(declare-fun y18 () Real)
(declare-fun y19 () Real)
(declare-fun y20 () Real)

(assert (and
    (>= x0 100000)
    (>= x1 100000)
    (>= x2 100000)
    (>= x3 100000)
    (>= x4 100000)
    (>= x5 100000)
    (>= x6 100000)
    (>= x7 100000)
    (>= x8 100000)
    (>= x9 100000)
    (>= x10 100000)
    (>= x11 100000)
    (>= x12 100000)
    (>= x13 100000)
    (>= x14 100000)
    (>= x15 100000)
    (>= x16 100000)
    (>= x17 100000)
    (>= x18 100000)
    (>= x19 100000)
    (>= x20 100000)

    (>= y0 100000)
    (>= y1 100000)
    (>= y2 100000)
    (>= y3 100000)
    (>= y4 100000)
    (>= y5 100000)
    (>= y6 100000)
    (>= y7 100000)
    (>= y8 100000)
    (>= y9 100000)
    (>= y10 100000)
    (>= y11 100000)
    (>= y12 100000)
    (>= y13 100000)
    (>= y14 100000)
    (>= y15 100000)
    (>= y16 100000)
    (>= y17 100000)
    (>= y18 100000)
    (>= y19 100000)
    (>= y20 100000)

    (= x20 0)
    (or (> y20 0) (< y20 0))
    
    (or 
        (and (= x11 (- x10 1)) (= y11 (- y10 1)))
        (and (= x11 x10) (= y11 y10))
    )
    (or 
        (and (= x12 (- x11 1)) (= y12 (- y11 1)))
        (and (= x12 x11) (= y12 y11))
    )
    (or 
        (and (= x13 (- x12 1)) (= y13 (- y12 1)))
        (and (= x13 x12) (= y13 y12))
    )
    (or 
        (and (= x14 (- x13 1)) (= y14 (- y13 1)))
        (and (= x14 x13) (= y14 y13))
    )
    (or 
        (and (= x15 (- x14 1)) (= y15 (- y14 1)))
        (and (= x15 x14) (= y15 y14))
    )
    (or 
        (and (= x16 (- x15 1)) (= y16 (- y15 1)))
        (and (= x16 x15) (= y16 y15))
    )
    (or 
        (and (= x17 (- x16 1)) (= y17 (- y16 1)))
        (and (= x17 x16) (= y17 y16))
    )
    (or 
        (and (= x18 (- x17 1)) (= y18 (- y17 1)))
        (and (= x18 x17) (= y18 y17))
    )
    (or 
        (and (= x19 (- x18 1)) (= y19 (- y18 1)))
        (and (= x19 x18) (= y19 y18))
    )
    (or 
        (and (= x20 (- x19 1)) (= y20 (- y19 1)))
        (and (= x20 x19) (= y20 y19))
    )
    
))